c  quinn.cnf
c
p cnf 16 18
  1    2  0ab
 -2   -4  0ab
  3    4  0ab
 -4   -5  0ab
  5   -6  0ab
  6   -7  0ab
  6    7  0ab
  7  -16  0ab
  8   -9  0ab
 -8  -14  0ab
  9   10  0ab
  9  -10  0ab
-10  -11  0ab
 10   12  0ab
 11   12  0ab
 13   14  0ab
 14  -15  0ab
 15   16  0ab